(set-logic ALL)
(declare-fun |seed0_c_old(~a3~0)| () Int)
(declare-fun seed0_c_~a3~0 () Int)
(declare-fun seed0_Q1_v_~a3~0_2177 () Int)
(declare-fun seed0_Q2_v_~a3~0_2177 () Int)
(declare-fun seed0_Q3_v_~a3~0_2177 () Int)
(assert (and (or (or (and (<= seed0_c_~a3~0 (+ (div (+ seed0_Q1_v_~a3~0_2177  (- 210150)) 5) 219839)) (<= seed0_Q1_v_~a3~0_2177  |seed0_c_old(~a3~0)|) (<= 210150 seed0_Q1_v_~a3~0_2177 )) (and (<= seed0_Q2_v_~a3~0_2177  |seed0_c_old(~a3~0)|) (not (= 0 (mod seed0_Q2_v_~a3~0_2177  5))) (< seed0_Q2_v_~a3~0_2177  210150) (<= seed0_c_~a3~0 (+ (div (+ seed0_Q2_v_~a3~0_2177  (- 210150)) 5) 219840))) (and (= 0 (mod seed0_Q3_v_~a3~0_2177  5)) (<= seed0_c_~a3~0 (+ (div (+ seed0_Q3_v_~a3~0_2177  (- 210150)) 5) 219839)) (<= seed0_Q3_v_~a3~0_2177  |seed0_c_old(~a3~0)|))) (not (< (mod seed0_Q1_v_~a3~0_2177 seed0_Q1_v_~a3~0_2177) (mod seed0_c_~a3~0 seed0_Q2_v_~a3~0_2177)))) (or (forall ((seed0_Q4_v_~a3~0_2178 Int)) (forall ((seed0_Q5_v_~a3~0_2178 Int)) (forall ((seed0_Q6_v_~a3~0_2178 Int)) (and (or (not (= 0 (mod seed0_Q4_v_~a3~0_2178 5))) (not (<= seed0_Q4_v_~a3~0_2178 |seed0_c_old(~a3~0)|)) (not (<= (+ seed0_c_~a3~0 125944) (div (+ seed0_Q4_v_~a3~0_2178 (- 600335)) 5)))) (or (not (<= seed0_Q5_v_~a3~0_2178 |seed0_c_old(~a3~0)|)) (not (<= (+ seed0_c_~a3~0 125943) (div (+ seed0_Q5_v_~a3~0_2178 (- 600335)) 5))) (= 0 (mod seed0_Q5_v_~a3~0_2178 5)) (not (< seed0_Q5_v_~a3~0_2178 600335))) (or (not (<= seed0_Q6_v_~a3~0_2178 |seed0_c_old(~a3~0)|)) (not (<= (+ seed0_c_~a3~0 125944) (div (+ seed0_Q6_v_~a3~0_2178 (- 600335)) 5))) (not (<= 600335 seed0_Q6_v_~a3~0_2178))))))) (=> (= (mod seed0_Q1_v_~a3~0_2177 seed0_Q2_v_~a3~0_2177) (mod seed0_Q2_v_~a3~0_2177 seed0_c_~a3~0)) (<= (* |seed0_c_old(~a3~0)| |seed0_c_old(~a3~0)|) (mod |seed0_c_old(~a3~0)| seed0_Q2_v_~a3~0_2177))))))
(check-sat)
(exit)